# Solution for model r5_t36_m0_8
# Finished Task: 28 / 36
# Makespan: 836.0, Total Distance: 1422.0, Total Time: 1.4945
# R O S F
0 0 14 0.0 0.0
1 1 31 0.0 0.0
2 2 34 0.0 0.0
3 3 13 0.0 0.0
4 4 18 0.0 0.0
5 4 7 702.0 733.0
6 3 24 308.0 347.0
7 4 37 742.0 771.0
8 2 26 675.0 698.0
9 -1 -1 -1.0 -1.0
10 4 23 584.0 616.0
11 4 20 378.0 412.0
12 -1 -1 -1.0 -1.0
13 3 16 173.0 207.0
14 0 19 205.0 237.0
15 3 -1 775.0 802.0
16 3 6 272.0 308.0
17 -1 -1 -1.0 -1.0
18 4 11 318.0 353.0
19 0 32 478.0 512.0
20 4 27 448.0 486.0
21 3 25 454.0 490.0
22 3 15 709.0 729.0
23 4 5 650.0 680.0
24 3 21 405.0 436.0
25 3 30 558.0 578.0
26 2 36 724.0 748.0
27 4 10 512.0 532.0
28 -1 -1 -1.0 -1.0
29 -1 -1 -1.0 -1.0
30 3 22 621.0 648.0
31 1 33 420.0 447.0
32 0 40 650.0 675.0
33 1 -1 756.0 790.0
34 2 8 469.0 498.0
35 -1 -1 -1.0 -1.0
36 2 -1 799.0 827.0
37 4 -1 813.0 836.0
38 -1 -1 -1.0 -1.0
39 -1 -1 -1.0 -1.0
40 0 -1 783.0 815.0
